
Gurobi 11.0.3 (linux64) logging started Mon Nov 25 12:36:14 2024

Set parameter LogFile to value "/home/yihong/Coding/OR_SUC/SUC_results_bigM100000_thread4/case24_ieee_rts_theta0.5_epsilon0.05_gurobi_seed50000_num_gen100_N_WDR50_load_scaling_factor1_ori_T24quadra_cost.txt"
Set parameter TimeLimit to value 3600
Gurobi Optimizer version 11.0.3 build v11.0.3rc0 (linux64 - "Ubuntu 20.04.6 LTS")

CPU model: AMD EPYC 7532 32-Core Processor, instruction set [SSE2|AVX|AVX2]
Thread count: 64 physical cores, 128 logical processors, using up to 4 threads

Optimize a model with 139876 rows, 29811 columns and 10221862 nonzeros
Model fingerprint: 0x8d96c437
Model has 2400 quadratic constraints
Variable types: 27411 continuous, 2400 integer (2400 binary)
Coefficient statistics:
  Matrix range     [3e-04, 3e+03]
  QMatrix range    [2e-03, 8e-03]
  QLMatrix range   [2e-01, 6e+01]
  Objective range  [1e+00, 1e+00]
  Bounds range     [1e+00, 1e+00]
  RHS range        [4e-04, 9e+03]
Presolve removed 48713 rows and 17520 columns (presolve time = 5s) ...
Presolve removed 45909 rows and 12416 columns
Presolve time: 8.24s
Presolved: 93967 rows, 17395 columns, 2045003 nonzeros
Presolved model has 2400 quadratic constraint(s)
Variable types: 14995 continuous, 2400 integer (2400 binary)

Deterministic concurrent LP optimizer: primal and dual simplex (primal and dual model)
Showing primal log only...

Root relaxation presolved: 93967 rows, 14995 columns, 2045003 nonzeros


Root simplex log...

Iteration    Objective       Primal Inf.    Dual Inf.      Time
       0    1.4725403e+06   2.410095e+04   1.247026e+10      9s
   15605    2.0429614e+05   9.593431e+02   3.117624e+09     10s
Concurrent spin time: 0.06s

Solved with primal simplex

Root relaxation: objective 4.891596e+04, 7179 iterations, 1.90 seconds (2.79 work units)

    Nodes    |    Current Node    |     Objective Bounds      |     Work
 Expl Unexpl |  Obj  Depth IntInf | Incumbent    BestBd   Gap | It/Node Time

     0     0 48915.9625    0    -          - 48915.9625      -     - 2599s
     0     0 623628.441    0  655          - 623628.441      -     - 2611s
     0     0 642502.775    0   63          - 642502.775      -     - 2614s
     0     0 642521.357    0   62          - 642521.357      -     - 2616s
     0     0 642522.301    0   60          - 642522.301      -     - 2619s
     0     0 642522.939    0   60          - 642522.939      -     - 2622s
     0     0 642522.939    0   61          - 642522.939      -     - 2623s
     0     0 642523.029    0   61          - 642523.029      -     - 2624s
     0     0 642523.029    0   61          - 642523.029      -     - 2626s
     0     0 642523.612    0   61          - 642523.612      -     - 2627s
     0     0 642523.612    0   61          - 642523.612      -     - 2632s
     0     0 642523.612    0   61          - 642523.612      -     - 2635s
     0     2 642523.612    0   61          - 642523.612      -     - 2641s
     7    12 642527.099    3   81          - 642527.099      -  90.4 2646s
    19    24 642534.946    6   55          - 642527.273      -  59.8 2652s
    27    34 642548.600    8   67          - 642527.273      -  65.8 2657s
    33    45 642551.347   10   67          - 642527.273      -  64.0 2660s
    44    61 642555.113   12   81          - 642527.273      -  57.5 2665s
    60    80 642561.816   15   83          - 642527.273      -  49.0 2670s
    79   107 642569.724   20   57          - 642527.273      -  43.2 2678s
   106   194 642678.968   26   32          - 642527.843      -  40.9 2686s
   213   235 642606.698   13  102          - 642527.843      -  34.1 2690s
   248   322 642625.499   22   59          - 642527.843      -  36.9 2696s
   345   360 642688.505   59    -          - 642551.752      -  33.2 2700s
   387   461 642637.973    8   74          - 642552.674      -  36.6 2708s
   514   477 642733.964   41   61          - 642552.674      -  38.7 2712s
   516   478 642625.726    6   23          - 642552.674      -  38.5 2729s
   517   479 644714.659   74   21          - 642552.674      -  38.5 2741s
   518   480 643011.519   25   21          - 642552.674      -  38.4 2753s
   519   480 642608.992   18   21          - 642552.674      -  38.3 2765s
   520   481 642772.319   30   21          - 642552.674      -  38.2 2772s
   521   482 642699.827   16   21          - 642552.674      -  38.2 2777s
   522   482 644778.977   85   21          - 642552.674      -  38.1 2789s
   523   483 642782.953   28   21          - 642552.674      -  38.0 2795s
   524   484 642627.018   23   21          - 642552.674      -  37.9 2801s
   525   484 642688.505   59   21          - 642552.674      -  37.9 2807s
   526   485 642864.799   59   21          - 642552.674      -  37.8 2813s
   527   486 643386.009   22   21          - 642552.674      -  37.7 2819s
   528   486 642621.118   25   21          - 642552.674      -  37.7 2825s
   529   487 645059.905   85   21          - 642552.674      -  37.6 2831s
   530   488 642844.765   16   21          - 642552.674      -  37.5 2837s
   531   488 642584.707    4   21          - 642552.817      -  37.4 2843s
   532   489 642688.667   43   21          - 642552.817      -  37.4 2849s
   533   490 642699.827   16   21          - 642552.817      -  37.3 2855s

Cutting planes:
  Lift-and-project: 1
  Implied bound: 2
  MIR: 34
  Flow cover: 7
  RLT: 4

Explored 533 nodes (59984 simplex iterations) in 3653.95 seconds (2515.63 work units)
Thread count was 4 (of 128 available processors)

Solution count 0

Time limit reached
Best objective -, best bound 6.425528165970e+05, gap -
